p cnf 3000 1276  
1 2 3 0 
4 5 6 0 
7 8 9 0 
10 11 12 0 
13 14 15 0 
16 17 18 0 
19 20 21 0 
22 23 24 0 
25 26 27 0 
28 29 30 0 
31 32 33 0 
34 35 36 0 
37 38 39 0 
40 41 42 0 
43 44 45 0 
46 47 48 0 
49 50 51 0 
52 53 54 0 
55 56 57 0 
58 59 60 0 
61 62 63 0 
64 65 66 0 
67 68 69 0 
70 71 72 0 
73 74 75 0 
76 77 78 0 
79 80 81 0 
82 83 84 0 
85 86 87 0 
88 89 90 0 
91 92 93 0 
94 95 96 0 
97 98 99 0 
100 101 102 0 
103 104 105 0 
106 107 108 0 
109 110 111 0 
112 113 114 0 
115 116 117 0 
118 119 120 0 
121 122 123 0 
124 125 126 0 
127 128 129 0 
130 131 132 0 
133 134 135 0 
136 137 138 0 
139 140 141 0 
142 143 144 0 
145 146 147 0 
148 149 150 0 
151 152 153 0 
154 155 156 0 
157 158 159 0 
160 161 162 0 
163 164 165 0 
166 167 168 0 
169 170 171 0 
172 173 174 0 
175 176 177 0 
178 179 180 0 
181 182 183 0 
184 185 186 0 
187 188 189 0 
190 191 192 0 
193 194 195 0 
196 197 198 0 
199 200 201 0 
202 203 204 0 
205 206 207 0 
208 209 210 0 
211 212 213 0 
214 215 216 0 
217 218 219 0 
220 221 222 0 
223 224 225 0 
226 227 228 0 
229 230 231 0 
232 233 234 0 
235 236 237 0 
238 239 240 0 
241 242 243 0 
244 245 246 0 
247 248 249 0 
250 251 252 0 
253 254 255 0 
256 257 258 0 
259 260 261 0 
262 263 264 0 
265 266 267 0 
268 269 270 0 
271 272 273 0 
274 275 276 0 
277 278 279 0 
280 281 282 0 
283 284 285 0 
286 287 288 0 
289 290 291 0 
292 293 294 0 
295 296 297 0 
298 299 300 0 
301 302 303 0 
304 305 306 0 
307 308 309 0 
310 311 312 0 
313 314 315 0 
316 317 318 0 
319 320 321 0 
322 323 324 0 
325 326 327 0 
328 329 330 0 
331 332 333 0 
334 335 336 0 
337 338 339 0 
340 341 342 0 
343 344 345 0 
346 347 348 0 
349 350 351 0 
352 353 354 0 
355 356 357 0 
358 359 360 0 
361 362 363 0 
364 365 366 0 
367 368 369 0 
370 371 372 0 
373 374 375 0 
376 377 378 0 
379 380 381 0 
382 383 384 0 
385 386 387 0 
388 389 390 0 
391 392 393 0 
394 395 396 0 
397 398 399 0 
400 401 402 0 
403 404 405 0 
406 407 408 0 
409 410 411 0 
412 413 414 0 
415 416 417 0 
418 419 420 0 
421 422 423 0 
424 425 426 0 
427 428 429 0 
430 431 432 0 
433 434 435 0 
436 437 438 0 
439 440 441 0 
442 443 444 0 
445 446 447 0 
448 449 450 0 
451 452 453 0 
454 455 456 0 
457 458 459 0 
460 461 462 0 
463 464 465 0 
466 467 468 0 
469 470 471 0 
472 473 474 0 
475 476 477 0 
478 479 480 0 
481 482 483 0 
484 485 486 0 
487 488 489 0 
490 491 492 0 
493 494 495 0 
496 497 498 0 
499 500 501 0 
502 503 504 0 
505 506 507 0 
508 509 510 0 
511 512 513 0 
514 515 516 0 
517 518 519 0 
520 521 522 0 
523 524 525 0 
526 527 528 0 
529 530 531 0 
532 533 534 0 
535 536 537 0 
538 539 540 0 
541 542 543 0 
544 545 546 0 
547 548 549 0 
550 551 552 0 
553 554 555 0 
556 557 558 0 
559 560 561 0 
562 563 564 0 
565 566 567 0 
568 569 570 0 
571 572 573 0 
574 575 576 0 
577 578 579 0 
580 581 582 0 
583 584 585 0 
586 587 588 0 
589 590 591 0 
592 593 594 0 
595 596 597 0 
598 599 600 0 
601 602 603 0 
604 605 606 0 
607 608 609 0 
610 611 612 0 
613 614 615 0 
616 617 618 0 
619 620 621 0 
622 623 624 0 
625 626 627 0 
628 629 630 0 
631 632 633 0 
634 635 636 0 
637 638 639 0 
640 641 642 0 
643 644 645 0 
646 647 648 0 
649 650 651 0 
652 653 654 0 
655 656 657 0 
658 659 660 0 
661 662 663 0 
664 665 666 0 
667 668 669 0 
670 671 672 0 
673 674 675 0 
676 677 678 0 
679 680 681 0 
682 683 684 0 
685 686 687 0 
688 689 690 0 
691 692 693 0 
694 695 696 0 
697 698 699 0 
700 701 702 0 
703 704 705 0 
706 707 708 0 
709 710 711 0 
712 713 714 0 
715 716 717 0 
718 719 720 0 
721 722 723 0 
724 725 726 0 
727 728 729 0 
730 731 732 0 
733 734 735 0 
736 737 738 0 
739 740 741 0 
742 743 744 0 
745 746 747 0 
748 749 750 0 
751 752 753 0 
754 755 756 0 
757 758 759 0 
760 761 762 0 
763 764 765 0 
766 767 768 0 
769 770 771 0 
772 773 774 0 
775 776 777 0 
778 779 780 0 
781 782 783 0 
784 785 786 0 
787 788 789 0 
790 791 792 0 
793 794 795 0 
796 797 798 0 
799 800 801 0 
802 803 804 0 
805 806 807 0 
808 809 810 0 
811 812 813 0 
814 815 816 0 
817 818 819 0 
820 821 822 0 
823 824 825 0 
826 827 828 0 
829 830 831 0 
832 833 834 0 
835 836 837 0 
838 839 840 0 
841 842 843 0 
844 845 846 0 
847 848 849 0 
850 851 852 0 
853 854 855 0 
856 857 858 0 
859 860 861 0 
862 863 864 0 
865 866 867 0 
868 869 870 0 
871 872 873 0 
874 875 876 0 
877 878 879 0 
880 881 882 0 
883 884 885 0 
886 887 888 0 
889 890 891 0 
892 893 894 0 
895 896 897 0 
898 899 900 0 
901 902 903 0 
904 905 906 0 
907 908 909 0 
910 911 912 0 
913 914 915 0 
916 917 918 0 
919 920 921 0 
922 923 924 0 
925 926 927 0 
928 929 930 0 
931 932 933 0 
934 935 936 0 
937 938 939 0 
940 941 942 0 
943 944 945 0 
946 947 948 0 
949 950 951 0 
952 953 954 0 
955 956 957 0 
958 959 960 0 
961 962 963 0 
964 965 966 0 
967 968 969 0 
970 971 972 0 
973 974 975 0 
976 977 978 0 
979 980 981 0 
982 983 984 0 
985 986 987 0 
988 989 990 0 
991 992 993 0 
994 995 996 0 
997 998 999 0 
1000 1001 1002 0 
1003 1004 1005 0 
1006 1007 1008 0 
1009 1010 1011 0 
1012 1013 1014 0 
1015 1016 1017 0 
1018 1019 1020 0 
1021 1022 1023 0 
1024 1025 1026 0 
1027 1028 1029 0 
1030 1031 1032 0 
1033 1034 1035 0 
1036 1037 1038 0 
1039 1040 1041 0 
1042 1043 1044 0 
1045 1046 1047 0 
1048 1049 1050 0 
1051 1052 1053 0 
1054 1055 1056 0 
1057 1058 1059 0 
1060 1061 1062 0 
1063 1064 1065 0 
1066 1067 1068 0 
1069 1070 1071 0 
1072 1073 1074 0 
1075 1076 1077 0 
1078 1079 1080 0 
1081 1082 1083 0 
1084 1085 1086 0 
1087 1088 1089 0 
1090 1091 1092 0 
1093 1094 1095 0 
1096 1097 1098 0 
1099 1100 1101 0 
1102 1103 1104 0 
1105 1106 1107 0 
1108 1109 1110 0 
1111 1112 1113 0 
1114 1115 1116 0 
1117 1118 1119 0 
1120 1121 1122 0 
1123 1124 1125 0 
1126 1127 1128 0 
1129 1130 1131 0 
1132 1133 1134 0 
1135 1136 1137 0 
1138 1139 1140 0 
1141 1142 1143 0 
1144 1145 1146 0 
1147 1148 1149 0 
1150 1151 1152 0 
1153 1154 1155 0 
1156 1157 1158 0 
1159 1160 1161 0 
1162 1163 1164 0 
1165 1166 1167 0 
1168 1169 1170 0 
1171 1172 1173 0 
1174 1175 1176 0 
1177 1178 1179 0 
1180 1181 1182 0 
1183 1184 1185 0 
1186 1187 1188 0 
1189 1190 1191 0 
1192 1193 1194 0 
1195 1196 1197 0 
1198 1199 1200 0 
1201 1202 1203 0 
1204 1205 1206 0 
1207 1208 1209 0 
1210 1211 1212 0 
1213 1214 1215 0 
1216 1217 1218 0 
1219 1220 1221 0 
1222 1223 1224 0 
1225 1226 1227 0 
1228 1229 1230 0 
1231 1232 1233 0 
1234 1235 1236 0 
1237 1238 1239 0 
1240 1241 1242 0 
1243 1244 1245 0 
1246 1247 1248 0 
1249 1250 1251 0 
1252 1253 1254 0 
1255 1256 1257 0 
1258 1259 1260 0 
1261 1262 1263 0 
1264 1265 1266 0 
1267 1268 1269 0 
1270 1271 1272 0 
1273 1274 1275 0 
1276 1277 1278 0 
1279 1280 1281 0 
1282 1283 1284 0 
1285 1286 1287 0 
1288 1289 1290 0 
1291 1292 1293 0 
1294 1295 1296 0 
1297 1298 1299 0 
1300 1301 1302 0 
1303 1304 1305 0 
1306 1307 1308 0 
1309 1310 1311 0 
1312 1313 1314 0 
1315 1316 1317 0 
1318 1319 1320 0 
1321 1322 1323 0 
1324 1325 1326 0 
1327 1328 1329 0 
1330 1331 1332 0 
1333 1334 1335 0 
1336 1337 1338 0 
1339 1340 1341 0 
1342 1343 1344 0 
1345 1346 1347 0 
1348 1349 1350 0 
1351 1352 1353 0 
1354 1355 1356 0 
1357 1358 1359 0 
1360 1361 1362 0 
1363 1364 1365 0 
1366 1367 1368 0 
1369 1370 1371 0 
1372 1373 1374 0 
1375 1376 1377 0 
1378 1379 1380 0 
1381 1382 1383 0 
1384 1385 1386 0 
1387 1388 1389 0 
1390 1391 1392 0 
1393 1394 1395 0 
1396 1397 1398 0 
1399 1400 1401 0 
1402 1403 1404 0 
1405 1406 1407 0 
1408 1409 1410 0 
1411 1412 1413 0 
1414 1415 1416 0 
1417 1418 1419 0 
1420 1421 1422 0 
1423 1424 1425 0 
1426 1427 1428 0 
1429 1430 1431 0 
1432 1433 1434 0 
1435 1436 1437 0 
1438 1439 1440 0 
1441 1442 1443 0 
1444 1445 1446 0 
1447 1448 1449 0 
1450 1451 1452 0 
1453 1454 1455 0 
1456 1457 1458 0 
1459 1460 1461 0 
1462 1463 1464 0 
1465 1466 1467 0 
1468 1469 1470 0 
1471 1472 1473 0 
1474 1475 1476 0 
1477 1478 1479 0 
1480 1481 1482 0 
1483 1484 1485 0 
1486 1487 1488 0 
1489 1490 1491 0 
1492 1493 1494 0 
1495 1496 1497 0 
1498 1499 1500 0 
1501 1502 1503 0 
1504 1505 1506 0 
1507 1508 1509 0 
1510 1511 1512 0 
1513 1514 1515 0 
1516 1517 1518 0 
1519 1520 1521 0 
1522 1523 1524 0 
1525 1526 1527 0 
1528 1529 1530 0 
1531 1532 1533 0 
1534 1535 1536 0 
1537 1538 1539 0 
1540 1541 1542 0 
1543 1544 1545 0 
1546 1547 1548 0 
1549 1550 1551 0 
1552 1553 1554 0 
1555 1556 1557 0 
1558 1559 1560 0 
1561 1562 1563 0 
1564 1565 1566 0 
1567 1568 1569 0 
1570 1571 1572 0 
1573 1574 1575 0 
1576 1577 1578 0 
1579 1580 1581 0 
1582 1583 1584 0 
1585 1586 1587 0 
1588 1589 1590 0 
1591 1592 1593 0 
1594 1595 1596 0 
1597 1598 1599 0 
1600 1601 1602 0 
1603 1604 1605 0 
1606 1607 1608 0 
1609 1610 1611 0 
1612 1613 1614 0 
1615 1616 1617 0 
1618 1619 1620 0 
1621 1622 1623 0 
1624 1625 1626 0 
1627 1628 1629 0 
1630 1631 1632 0 
1633 1634 1635 0 
1636 1637 1638 0 
1639 1640 1641 0 
1642 1643 1644 0 
1645 1646 1647 0 
1648 1649 1650 0 
1651 1652 1653 0 
1654 1655 1656 0 
1657 1658 1659 0 
1660 1661 1662 0 
1663 1664 1665 0 
1666 1667 1668 0 
1669 1670 1671 0 
1672 1673 1674 0 
1675 1676 1677 0 
1678 1679 1680 0 
1681 1682 1683 0 
1684 1685 1686 0 
1687 1688 1689 0 
1690 1691 1692 0 
1693 1694 1695 0 
1696 1697 1698 0 
1699 1700 1701 0 
1702 1703 1704 0 
1705 1706 1707 0 
1708 1709 1710 0 
1711 1712 1713 0 
1714 1715 1716 0 
1717 1718 1719 0 
1720 1721 1722 0 
1723 1724 1725 0 
1726 1727 1728 0 
1729 1730 1731 0 
1732 1733 1734 0 
1735 1736 1737 0 
1738 1739 1740 0 
1741 1742 1743 0 
1744 1745 1746 0 
1747 1748 1749 0 
1750 1751 1752 0 
1753 1754 1755 0 
1756 1757 1758 0 
1759 1760 1761 0 
1762 1763 1764 0 
1765 1766 1767 0 
1768 1769 1770 0 
1771 1772 1773 0 
1774 1775 1776 0 
1777 1778 1779 0 
1780 1781 1782 0 
1783 1784 1785 0 
1786 1787 1788 0 
1789 1790 1791 0 
1792 1793 1794 0 
1795 1796 1797 0 
1798 1799 1800 0 
1801 1802 1803 0 
1804 1805 1806 0 
1807 1808 1809 0 
1810 1811 1812 0 
1813 1814 1815 0 
1816 1817 1818 0 
1819 1820 1821 0 
1822 1823 1824 0 
1825 1826 1827 0 
1828 1829 1830 0 
1831 1832 1833 0 
1834 1835 1836 0 
1837 1838 1839 0 
1840 1841 1842 0 
1843 1844 1845 0 
1846 1847 1848 0 
1849 1850 1851 0 
1852 1853 1854 0 
1855 1856 1857 0 
1858 1859 1860 0 
1861 1862 1863 0 
1864 1865 1866 0 
1867 1868 1869 0 
1870 1871 1872 0 
1873 1874 1875 0 
1876 1877 1878 0 
1879 1880 1881 0 
1882 1883 1884 0 
1885 1886 1887 0 
1888 1889 1890 0 
1891 1892 1893 0 
1894 1895 1896 0 
1897 1898 1899 0 
1900 1901 1902 0 
1903 1904 1905 0 
1906 1907 1908 0 
1909 1910 1911 0 
1912 1913 1914 0 
1915 1916 1917 0 
1918 1919 1920 0 
1921 1922 1923 0 
1924 1925 1926 0 
1927 1928 1929 0 
1930 1931 1932 0 
1933 1934 1935 0 
1936 1937 1938 0 
1939 1940 1941 0 
1942 1943 1944 0 
1945 1946 1947 0 
1948 1949 1950 0 
1951 1952 1953 0 
1954 1955 1956 0 
1957 1958 1959 0 
1960 1961 1962 0 
1963 1964 1965 0 
1966 1967 1968 0 
1969 1970 1971 0 
1972 1973 1974 0 
1975 1976 1977 0 
1978 1979 1980 0 
1981 1982 1983 0 
1984 1985 1986 0 
1987 1988 1989 0 
1990 1991 1992 0 
1993 1994 1995 0 
1996 1997 1998 0 
1999 2000 2001 0 
2002 2003 2004 0 
2005 2006 2007 0 
2008 2009 2010 0 
2011 2012 2013 0 
2014 2015 2016 0 
2017 2018 2019 0 
2020 2021 2022 0 
2023 2024 2025 0 
2026 2027 2028 0 
2029 2030 2031 0 
2032 2033 2034 0 
2035 2036 2037 0 
2038 2039 2040 0 
2041 2042 2043 0 
2044 2045 2046 0 
2047 2048 2049 0 
2050 2051 2052 0 
2053 2054 2055 0 
2056 2057 2058 0 
2059 2060 2061 0 
2062 2063 2064 0 
2065 2066 2067 0 
2068 2069 2070 0 
2071 2072 2073 0 
2074 2075 2076 0 
2077 2078 2079 0 
2080 2081 2082 0 
2083 2084 2085 0 
2086 2087 2088 0 
2089 2090 2091 0 
2092 2093 2094 0 
2095 2096 2097 0 
2098 2099 2100 0 
2101 2102 2103 0 
2104 2105 2106 0 
2107 2108 2109 0 
2110 2111 2112 0 
2113 2114 2115 0 
2116 2117 2118 0 
2119 2120 2121 0 
2122 2123 2124 0 
2125 2126 2127 0 
2128 2129 2130 0 
2131 2132 2133 0 
2134 2135 2136 0 
2137 2138 2139 0 
2140 2141 2142 0 
2143 2144 2145 0 
2146 2147 2148 0 
2149 2150 2151 0 
2152 2153 2154 0 
2155 2156 2157 0 
2158 2159 2160 0 
2161 2162 2163 0 
2164 2165 2166 0 
2167 2168 2169 0 
2170 2171 2172 0 
2173 2174 2175 0 
2176 2177 2178 0 
2179 2180 2181 0 
2182 2183 2184 0 
2185 2186 2187 0 
2188 2189 2190 0 
2191 2192 2193 0 
2194 2195 2196 0 
2197 2198 2199 0 
2200 2201 2202 0 
2203 2204 2205 0 
2206 2207 2208 0 
2209 2210 2211 0 
2212 2213 2214 0 
2215 2216 2217 0 
2218 2219 2220 0 
2221 2222 2223 0 
2224 2225 2226 0 
2227 2228 2229 0 
2230 2231 2232 0 
2233 2234 2235 0 
2236 2237 2238 0 
2239 2240 2241 0 
2242 2243 2244 0 
2245 2246 2247 0 
2248 2249 2250 0 
2251 2252 2253 0 
2254 2255 2256 0 
2257 2258 2259 0 
2260 2261 2262 0 
2263 2264 2265 0 
2266 2267 2268 0 
2269 2270 2271 0 
2272 2273 2274 0 
2275 2276 2277 0 
2278 2279 2280 0 
2281 2282 2283 0 
2284 2285 2286 0 
2287 2288 2289 0 
2290 2291 2292 0 
2293 2294 2295 0 
2296 2297 2298 0 
2299 2300 2301 0 
2302 2303 2304 0 
2305 2306 2307 0 
2308 2309 2310 0 
2311 2312 2313 0 
2314 2315 2316 0 
2317 2318 2319 0 
2320 2321 2322 0 
2323 2324 2325 0 
2326 2327 2328 0 
2329 2330 2331 0 
2332 2333 2334 0 
2335 2336 2337 0 
2338 2339 2340 0 
2341 2342 2343 0 
2344 2345 2346 0 
2347 2348 2349 0 
2350 2351 2352 0 
2353 2354 2355 0 
2356 2357 2358 0 
2359 2360 2361 0 
2362 2363 2364 0 
2365 2366 2367 0 
2368 2369 2370 0 
2371 2372 2373 0 
2374 2375 2376 0 
2377 2378 2379 0 
2380 2381 2382 0 
2383 2384 2385 0 
2386 2387 2388 0 
2389 2390 2391 0 
2392 2393 2394 0 
2395 2396 2397 0 
2398 2399 2400 0 
2401 2402 2403 0 
2404 2405 2406 0 
2407 2408 2409 0 
2410 2411 2412 0 
2413 2414 2415 0 
2416 2417 2418 0 
2419 2420 2421 0 
2422 2423 2424 0 
2425 2426 2427 0 
2428 2429 2430 0 
2431 2432 2433 0 
2434 2435 2436 0 
2437 2438 2439 0 
2440 2441 2442 0 
2443 2444 2445 0 
2446 2447 2448 0 
2449 2450 2451 0 
2452 2453 2454 0 
2455 2456 2457 0 
2458 2459 2460 0 
2461 2462 2463 0 
2464 2465 2466 0 
2467 2468 2469 0 
2470 2471 2472 0 
2473 2474 2475 0 
2476 2477 2478 0 
2479 2480 2481 0 
2482 2483 2484 0 
2485 2486 2487 0 
2488 2489 2490 0 
2491 2492 2493 0 
2494 2495 2496 0 
2497 2498 2499 0 
2500 2501 2502 0 
2503 2504 2505 0 
2506 2507 2508 0 
2509 2510 2511 0 
2512 2513 2514 0 
2515 2516 2517 0 
2518 2519 2520 0 
2521 2522 2523 0 
2524 2525 2526 0 
2527 2528 2529 0 
2530 2531 2532 0 
2533 2534 2535 0 
2536 2537 2538 0 
2539 2540 2541 0 
2542 2543 2544 0 
2545 2546 2547 0 
2548 2549 2550 0 
2551 2552 2553 0 
2554 2555 2556 0 
2557 2558 2559 0 
2560 2561 2562 0 
2563 2564 2565 0 
2566 2567 2568 0 
2569 2570 2571 0 
2572 2573 2574 0 
2575 2576 2577 0 
2578 2579 2580 0 
2581 2582 2583 0 
2584 2585 2586 0 
2587 2588 2589 0 
2590 2591 2592 0 
2593 2594 2595 0 
2596 2597 2598 0 
2599 2600 2601 0 
2602 2603 2604 0 
2605 2606 2607 0 
2608 2609 2610 0 
2611 2612 2613 0 
2614 2615 2616 0 
2617 2618 2619 0 
2620 2621 2622 0 
2623 2624 2625 0 
2626 2627 2628 0 
2629 2630 2631 0 
2632 2633 2634 0 
2635 2636 2637 0 
2638 2639 2640 0 
2641 2642 2643 0 
2644 2645 2646 0 
2647 2648 2649 0 
2650 2651 2652 0 
2653 2654 2655 0 
2656 2657 2658 0 
2659 2660 2661 0 
2662 2663 2664 0 
2665 2666 2667 0 
2668 2669 2670 0 
2671 2672 2673 0 
2674 2675 2676 0 
2677 2678 2679 0 
2680 2681 2682 0 
2683 2684 2685 0 
2686 2687 2688 0 
2689 2690 2691 0 
2692 2693 2694 0 
2695 2696 2697 0 
2698 2699 2700 0 
2701 2702 2703 0 
2704 2705 2706 0 
2707 2708 2709 0 
2710 2711 2712 0 
2713 2714 2715 0 
2716 2717 2718 0 
2719 2720 2721 0 
2722 2723 2724 0 
2725 2726 2727 0 
2728 2729 2730 0 
2731 2732 2733 0 
2734 2735 2736 0 
2737 2738 2739 0 
2740 2741 2742 0 
2743 2744 2745 0 
2746 2747 2748 0 
2749 2750 2751 0 
2752 2753 2754 0 
2755 2756 2757 0 
2758 2759 2760 0 
2761 2762 2763 0 
2764 2765 2766 0 
2767 2768 2769 0 
2770 2771 2772 0 
2773 2774 2775 0 
2776 2777 2778 0 
2779 2780 2781 0 
2782 2783 2784 0 
2785 2786 2787 0 
2788 2789 2790 0 
2791 2792 2793 0 
2794 2795 2796 0 
2797 2798 2799 0 
2800 2801 2802 0 
2803 2804 2805 0 
2806 2807 2808 0 
2809 2810 2811 0 
2812 2813 2814 0 
2815 2816 2817 0 
2818 2819 2820 0 
2821 2822 2823 0 
2824 2825 2826 0 
2827 2828 2829 0 
2830 2831 2832 0 
2833 2834 2835 0 
2836 2837 2838 0 
2839 2840 2841 0 
2842 2843 2844 0 
2845 2846 2847 0 
2848 2849 2850 0 
2851 2852 2853 0 
2854 2855 2856 0 
2857 2858 2859 0 
2860 2861 2862 0 
2863 2864 2865 0 
2866 2867 2868 0 
2869 2870 2871 0 
2872 2873 2874 0 
2875 2876 2877 0 
2878 2879 2880 0 
2881 2882 2883 0 
2884 2885 2886 0 
2887 2888 2889 0 
2890 2891 2892 0 
2893 2894 2895 0 
2896 2897 2898 0 
2899 2900 2901 0 
2902 2903 2904 0 
2905 2906 2907 0 
2908 2909 2910 0 
2911 2912 2913 0 
2914 2915 2916 0 
2917 2918 2919 0 
2920 2921 2922 0 
2923 2924 2925 0 
2926 2927 2928 0 
2929 2930 2931 0 
2932 2933 2934 0 
2935 2936 2937 0 
2938 2939 2940 0 
2941 2942 2943 0 
2944 2945 2946 0 
2947 2948 2949 0 
2950 2951 2952 0 
2953 2954 2955 0 
2956 2957 2958 0 
2959 2960 2961 0 
2962 2963 2964 0 
2965 2966 2967 0 
2968 2969 2970 0 
2971 2972 2973 0 
2974 2975 2976 0 
2977 2978 2979 0 
2980 2981 2982 0 
2983 2984 2985 0 
2986 2987 2988 0 
2989 2990 2991 0 
2992 2993 2994 0 
2995 2996 2997 0 
2998 2999 3000 0 
-1792 -2839 0 
-1793 -2840 0 
-1794 -2841 0 
-1936 -2125 0 
-1937 -2126 0 
-1938 -2127 0 
-358 -1375 0 
-359 -1376 0 
-360 -1377 0 
-2359 -82 0 
-2360 -83 0 
-2361 -84 0 
-2374 -1744 0 
-2375 -1745 0 
-2376 -1746 0 
-1294 -169 0 
-1295 -170 0 
-1296 -171 0 
-2431 -748 0 
-2432 -749 0 
-2433 -750 0 
-1537 -1888 0 
-1538 -1889 0 
-1539 -1890 0 
-427 -2863 0 
-428 -2864 0 
-429 -2865 0 
-2779 -85 0 
-2780 -86 0 
-2781 -87 0 
-2725 -406 0 
-2726 -407 0 
-2727 -408 0 
-340 -1996 0 
-341 -1997 0 
-342 -1998 0 
-505 -2098 0 
-506 -2099 0 
-507 -2100 0 
-2704 -2578 0 
-2705 -2579 0 
-2706 -2580 0 
-1978 -2902 0 
-1979 -2903 0 
-1980 -2904 0 
-400 -649 0 
-401 -650 0 
-402 -651 0 
-625 -2395 0 
-626 -2396 0 
-627 -2397 0 
-1216 -2506 0 
-1217 -2507 0 
-1218 -2508 0 
-769 -2818 0 
-770 -2819 0 
-771 -2820 0 
-262 -1801 0 
-263 -1802 0 
-264 -1803 0 
-529 -1873 0 
-530 -1874 0 
-531 -1875 0 
-2089 -277 0 
-2090 -278 0 
-2091 -279 0 
-2515 -898 0 
-2516 -899 0 
-2517 -900 0 
-1822 -796 0 
-1823 -797 0 
-1824 -798 0 
-565 -2821 0 
-566 -2822 0 
-567 -2823 0 
-22 -2581 0 
-23 -2582 0 
-24 -2583 0 
-1282 -2341 0 
-1283 -2342 0 
-1284 -2343 0 
-73 -2065 0 
-74 -2066 0 
-75 -2067 0 
-2308 -1360 0 
-2309 -1361 0 
-2310 -1362 0 
-2740 -1015 0 
-2741 -1016 0 
-2742 -1017 0 
-1900 -1447 0 
-1901 -1448 0 
-1902 -1449 0 
-817 -1684 0 
-818 -1685 0 
-819 -1686 0 
-1708 -2278 0 
-1709 -2279 0 
-1710 -2280 0 
-907 -1732 0 
-908 -1733 0 
-909 -1734 0 
-544 -508 0 
-545 -509 0 
-546 -510 0 
-703 -2410 0 
-704 -2411 0 
-705 -2412 0 
-2356 -2386 0 
-2357 -2387 0 
-2358 -2388 0 
-580 -196 0 
-581 -197 0 
-582 -198 0 
-1777 -604 0 
-1778 -605 0 
-1779 -606 0 
-2743 -535 0 
-2744 -536 0 
-2745 -537 0 
-2206 -388 0 
-2207 -389 0 
-2208 -390 0 
-2779 -2671 0 
-2780 -2672 0 
-2781 -2673 0 
-1705 -1759 0 
-1706 -1760 0 
-1707 -1761 0 
-214 -1696 0 
-215 -1697 0 
-216 -1698 0 
-793 -2077 0 
-794 -2078 0 
-795 -2079 0 
-1342 -2041 0 
-1343 -2042 0 
-1344 -2043 0 
-2719 -2569 0 
-2720 -2570 0 
-2721 -2571 0 
-532 -436 0 
-533 -437 0 
-534 -438 0 
-2800 -2422 0 
-2801 -2423 0 
-2802 -2424 0 
-2188 -2062 0 
-2189 -2063 0 
-2190 -2064 0 
-40 -2305 0 
-41 -2306 0 
-42 -2307 0 
-2533 -211 0 
-2534 -212 0 
-2535 -213 0 
-544 -1795 0 
-545 -1796 0 
-546 -1797 0 
-1642 -2146 0 
-1643 -2147 0 
-1644 -2148 0 
-961 -43 0 
-962 -44 0 
-963 -45 0 
-262 -1093 0 
-263 -1094 0 
-264 -1095 0 
-2692 -418 0 
-2693 -419 0 
-2694 -420 0 
-424 -2329 0 
-425 -2330 0 
-426 -2331 0 
-559 -1360 0 
-560 -1361 0 
-561 -1362 0 
-193 -379 0 
-194 -380 0 
-195 -381 0 
-280 -2806 0 
-281 -2807 0 
-282 -2808 0 
-1486 -1930 0 
-1487 -1931 0 
-1488 -1932 0 
-247 -1672 0 
-248 -1673 0 
-249 -1674 0 
-475 -865 0 
-476 -866 0 
-477 -867 0 
-1900 -1750 0 
-1901 -1751 0 
-1902 -1752 0 
-787 -2125 0 
-788 -2126 0 
-789 -2127 0 
-451 -178 0 
-452 -179 0 
-453 -180 0 
-1630 -1477 0 
-1631 -1478 0 
-1632 -1479 0 
-559 -2137 0 
-560 -2138 0 
-561 -2139 0 
-1687 -2446 0 
-1688 -2447 0 
-1689 -2448 0 
-1276 -64 0 
-1277 -65 0 
-1278 -66 0 
-1816 -2545 0 
-1817 -2546 0 
-1818 -2547 0 
-2602 -1651 0 
-2603 -1652 0 
-2604 -1653 0 
-535 -2887 0 
-536 -2888 0 
-537 -2889 0 
-919 -2404 0 
-920 -2405 0 
-921 -2406 0 
-2533 -1867 0 
-2534 -1868 0 
-2535 -1869 0 
-727 -2131 0 
-728 -2132 0 
-729 -2133 0 
-2689 -124 0 
-2690 -125 0 
-2691 -126 0 
-262 -1876 0 
-263 -1877 0 
-264 -1878 0 
-457 -406 0 
-458 -407 0 
-459 -408 0 
-1942 -169 0 
-1943 -170 0 
-1944 -171 0 
-2971 -88 0 
-2972 -89 0 
-2973 -90 0 
-1834 -2281 0 
-1835 -2282 0 
-1836 -2283 0 
-1720 -1225 0 
-1721 -1226 0 
-1722 -1227 0 
-28 -2188 0 
-29 -2189 0 
-30 -2190 0 
-337 -853 0 
-338 -854 0 
-339 -855 0 
-1099 -1471 0 
-1100 -1472 0 
-1101 -1473 0 
-2821 -1015 0 
-2822 -1016 0 
-2823 -1017 0 
-1831 -2092 0 
-1832 -2093 0 
-1833 -2094 0 
-244 -2578 0 
-245 -2579 0 
-246 -2580 0 
-1774 -1153 0 
-1775 -1154 0 
-1776 -1155 0 
-58 -1312 0 
-59 -1313 0 
-60 -1314 0 
